243/surrogate_problem/sol/surrogate2_38.sol
# Solution for model problem_
# Objective value = 2.0385463393683036e+05
x(0_0) 0
x(0_1) 0
x(0_2) 0
x(0_3) 0
x(0_4) 0
x(0_5) 1
x(0_6) 0
x(0_7) 0
x(0_8) 0
x(0_9) 0
x(0_10) 0
x(0_11) 0
x(0_12) 0
x(0_13) 0
x(0_14) 0
x(0_15) 0
x(0_16) 0
x(0_17) 0
x(0_18) 0
x(0_19) 0
x(1_20) 1
x(1_21) 0
x(1_22) 0
x(1_23) 0
x(1_24) 0
x(1_25) 0
x(1_26) 0
x(1_27) 0
x(1_28) 0
x(1_29) 0
x(1_30) 0
x(1_31) 0
x(1_32) 0
x(1_33) 0
x(1_34) 0
x(1_35) 0
x(2_36) 0
x(2_37) 0
x(2_38) 0
x(2_39) 0
x(2_40) 1
x(2_41) 0
x(2_42) 0
x(2_43) 0
x(2_44) 0
x(2_45) 0
x(2_46) 0
x(3_47) 0
x(3_48) 0
x(3_49) 0
x(3_50) 0
x(3_51) 0
x(3_52) 1
x(3_53) 0
x(3_54) 0
x(3_55) 0
x(3_56) 0
x(3_57) 0
x(3_58) 0
x(3_59) 0
x(3_60) 0
x(3_61) 0
x(4_62) 0
x(4_63) 0
x(4_64) 0
x(4_65) 0
x(4_66) 0
x(4_67) 0
x(4_68) 0
x(4_69) 1
x(4_70) 0
x(4_71) 0
x(5_72) 0
x(5_73) 0
x(5_74) 0
x(5_75) 0
x(5_76) 0
x(5_77) 1
x(5_78) 0
x(5_79) 0
x(5_80) 0
x(5_81) 0
x(5_82) 0
x(5_83) 0
x(5_84) 0
x(5_85) 0
x(5_86) 0
x(5_87) 0
x(5_88) 0
x(5_89) 0
x(5_90) 0
x(6_91) 0
x(6_92) 1
x(6_93) 0
x(6_94) 0
x(6_95) 0
x(6_96) 0
x(6_97) 0
x(6_98) 0
x(6_99) 0
x(6_100) 0
x(6_101) 0
x(6_102) 0
x(6_103) 0
x(6_104) 0
x(6_105) 0
x(6_106) 0
x(6_107) 0
x(6_108) 0
x(6_109) 0
x(6_110) 0
x(7_111) 0
x(7_112) 0
x(7_113) 0
x(7_114) 0
x(7_115) 0
x(7_116) 0
x(7_117) 0
x(7_118) 0
x(7_119) 1
x(7_120) 0
x(7_121) 0
x(7_122) 0
x(7_123) 0
x(7_124) 0
x(7_125) 0
x(7_126) 0
x(8_127) 1
x(8_128) 0
x(8_129) 0
x(8_130) 0
x(8_131) 0
x(8_132) 0
x(8_133) 0
x(8_134) 0
x(8_135) 0
x(8_136) 0
x(8_137) 0
x(9_138) 1
x(9_139) 0
x(9_140) 0
x(9_141) 0
x(9_142) 0
x(9_143) 0
x(9_144) 0
x(9_145) 0
x(9_146) 0
x(9_147) 0
x(9_148) 0
x(9_149) 0
x(9_150) 0
x(9_151) 0
x(9_152) 0
x(9_153) 0
x(9_154) 0
x(9_155) 0
x(9_156) 0
x(10_157) 0
x(10_158) 0
x(10_159) 1
x(10_160) 0
x(10_161) 0
x(10_162) 0
x(10_163) 0
x(10_164) 0
x(10_165) 0
x(10_166) 0
x(10_167) 0
x(10_168) 0
x(10_169) 0
x(10_170) 0
x(11_171) 0
x(11_172) 1
x(11_173) 0
x(11_174) 0
x(11_175) 0
x(11_176) 0
x(11_177) 0
x(11_178) 0
x(11_179) 0
x(11_180) 0
x(11_181) 0
x(11_182) 0
x(11_183) 0
x(11_184) 0
x(12_185) 0
x(12_186) 0
x(12_187) 0
x(12_188) 0
x(12_189) 0
x(12_190) 0
x(12_191) 0
x(12_192) 0
x(12_193) 0
x(12_194) 0
x(12_195) 1
x(12_196) 0
x(12_197) 0
x(12_198) 0
x(13_199) 0
x(13_200) 0
x(13_201) 0
x(13_202) 0
x(13_203) 0
x(13_204) 0
x(13_205) 0
x(13_206) 0
x(13_207) 0
x(13_208) 0
x(13_209) 0
x(13_210) 0
x(13_211) 1
x(13_212) 0
x(13_213) 0
x(13_214) 0
x(13_215) 0
x(14_216) 0
x(14_217) 0
x(14_218) 0
x(14_219) 0
x(14_220) 0
x(14_221) 0
x(14_222) 0
x(14_223) 0
x(14_224) 1
x(14_225) 0
x(14_226) 0
x(14_227) 0
x(14_228) 0
x(14_229) 0
x(14_230) 0
x(15_231) 0
x(15_232) 1
x(15_233) 0
x(15_234) 0
x(15_235) 0
x(15_236) 0
x(15_237) 0
x(15_238) 0
x(15_239) 0
x(15_240) 0
x(15_241) 0
x(15_242) 0
x(16_243) 0
x(16_244) 0
x(16_245) 0
x(16_246) 0
x(16_247) 1
x(16_248) 0
x(16_249) 0
x(16_250) 0
x(16_251) 0
x(16_252) 0
x(16_253) 0
x(16_254) 0
x(16_255) 0
x(16_256) 0
x(16_257) 0
x(16_258) 0
x(17_259) 0
x(17_260) 0
x(17_261) 0
x(17_262) 0
x(17_263) 0
x(17_264) 0
x(17_265) 0
x(17_266) 0
x(17_267) 0
x(17_268) 0
x(17_269) 0
x(17_270) 0
x(17_271) 1
x(17_272) 0
x(17_273) 0
x(17_274) 0
x(17_275) 0
x(18_276) 0
x(18_277) 0
x(18_278) 0
x(18_279) 1
x(18_280) 0
x(18_281) 0
x(18_282) 0
x(18_283) 0
x(18_284) 0
x(18_285) 0
x(18_286) 0
x(18_287) 0
x(18_288) 0
x(18_289) 0
x(18_290) 0
x(18_291) 0
x(18_292) 0
x(18_293) 0
x(19_294) 0
x(19_295) 0
x(19_296) 0
x(19_297) 0
x(19_298) 1
x(19_299) 0
x(19_300) 0
x(19_301) 0
x(19_302) 0
x(19_303) 0
x(19_304) 0
x(19_305) 0
x(19_306) 0
x(19_307) 0
x(19_308) 0
x(19_309) 0
x(19_310) 0
x(19_311) 0
x(19_312) 0
x(19_313) 0
x(20_314) 0
x(20_315) 0
x(20_316) 0
x(20_317) 0
x(20_318) 0
x(20_319) 0
x(20_320) 0
x(20_321) 1
x(20_322) 0
x(20_323) 0
x(20_324) 0
x(21_325) 0
x(21_326) 0
x(21_327) 0
x(21_328) 0
x(21_329) 0
x(21_330) 0
x(21_331) 0
x(21_332) 0
x(21_333) 0
x(21_334) 0
x(21_335) 0
x(21_336) 1
x(21_337) 0
x(21_338) 0
x(21_339) 0
x(21_340) 0
x(21_341) 0
x(22_342) 0
x(22_343) 1
x(22_344) 0
x(22_345) 0
x(22_346) 0
x(22_347) 0
x(22_348) 0
x(22_349) 0
x(22_350) 0
x(22_351) 0
x(22_352) 0
x(22_353) 0
x(22_354) 0
x(22_355) 0
x(22_356) 0
x(22_357) 0
x(23_358) 0
x(23_359) 0
x(23_360) 0
x(23_361) 0
x(23_362) 0
x(23_363) 0
x(23_364) 0
x(23_365) 0
x(23_366) 1
x(23_367) 0
x(23_368) 0
x(23_369) 0
x(23_370) 0
x(23_371) 0
x(23_372) 0
x(24_373) 0
x(24_374) 0
x(24_375) 0
x(24_376) 1
x(24_377) 0
x(24_378) 0
x(24_379) 0
x(24_380) 0
x(24_381) 0
x(24_382) 0
x(24_383) 0
x(24_384) 0
x(24_385) 0
x(24_386) 0
x(24_387) 0
x(24_388) 0
x(24_389) 0
x(24_390) 0
x(25_391) 0
x(25_392) 0
x(25_393) 0
x(25_394) 0
x(25_395) 0
x(25_396) 0
x(25_397) 1
x(25_398) 0
x(25_399) 0
x(25_400) 0
x(26_401) 0
x(26_402) 0
x(26_403) 0
x(26_404) 0
x(26_405) 1
x(26_406) 0
x(26_407) 0
x(26_408) 0
x(26_409) 0
x(26_410) 0
x(26_411) 0
x(26_412) 0
x(26_413) 0
x(26_414) 0
x(26_415) 0
x(26_416) 0
x(26_417) 0
x(26_418) 0
x(27_419) 0
x(27_420) 0
x(27_421) 0
x(27_422) 1
x(27_423) 0
x(27_424) 0
x(27_425) 0
x(27_426) 0
x(27_427) 0
x(27_428) 0
x(28_429) 1
x(28_430) 0
x(28_431) 0
x(28_432) 0
x(28_433) 0
x(28_434) 0
x(28_435) 0
x(28_436) 0
x(28_437) 0
x(28_438) 0
x(28_439) 0
x(28_440) 0
x(29_441) 1
x(29_442) 0
x(29_443) 0
x(29_444) 0
x(29_445) 0
x(29_446) 0
x(29_447) 0
x(29_448) 0
x(29_449) 0
x(29_450) 0
x(29_451) 0
x(29_452) 0
x(29_453) 0
x(29_454) 0
x(29_455) 0
x(29_456) 0
x(29_457) 0
x(29_458) 0
x(30_459) 0
x(30_460) 0
x(30_461) 0
x(30_462) 0
x(30_463) 0
x(30_464) 0
x(30_465) 0
x(30_466) 0
x(30_467) 0
x(30_468) 0
x(30_469) 0
x(30_470) 0
x(30_471) 1
x(31_472) 0
x(31_473) 0
x(31_474) 0
x(31_475) 0
x(31_476) 0
x(31_477) 0
x(31_478) 0
x(31_479) 0
x(31_480) 1
x(31_481) 0
x(31_482) 0
x(31_483) 0
x(31_484) 0
x(31_485) 0
x(31_486) 0
x(31_487) 0
x(31_488) 0
x(31_489) 0
x(31_490) 0
x(31_491) 0
x(32_492) 0
x(32_493) 0
x(32_494) 0
x(32_495) 0
x(32_496) 0
x(32_497) 0
x(32_498) 0
x(32_499) 0
x(32_500) 0
x(32_501) 0
x(32_502) 0
x(32_503) 1
x(32_504) 0
x(32_505) 0
x(32_506) 0
x(32_507) 0
x(32_508) 0
x(33_509) 0
x(33_510) 0
x(33_511) 0
x(33_512) 0
x(33_513) 0
x(33_514) 1
x(33_515) 0
x(33_516) 0
x(33_517) 0
x(33_518) 0
x(33_519) 0
x(33_520) 0
x(33_521) 0
x(33_522) 0
x(33_523) 0
x(33_524) 0
x(33_525) 0
x(34_526) 0
x(34_527) 0
x(34_528) 0
x(34_529) 0
x(34_530) 1
x(34_531) 0
x(34_532) 0
x(34_533) 0
x(34_534) 0
x(34_535) 0
x(34_536) 0
x(34_537) 0
x(34_538) 0
x(35_539) 0
x(35_540) 0
x(35_541) 0
x(35_542) 0
x(35_543) 0
x(35_544) 1
x(35_545) 0
x(35_546) 0
x(35_547) 0
x(35_548) 0
x(35_549) 0
x(35_550) 0
x(35_551) 0
x(35_552) 0
x(35_553) 0
x(35_554) 0
x(35_555) 0
x(35_556) 0
x(35_557) 0
x(35_558) 0
x(36_559) 0
x(36_560) 1
x(36_561) 0
x(36_562) 0
x(36_563) 0
x(36_564) 0
x(36_565) 0
x(36_566) 0
x(36_567) 0
x(36_568) 0
x(36_569) 0
x(36_570) 0
x(37_571) 0
x(37_572) 0
x(37_573) 0
x(37_574) 0
x(37_575) 0
x(37_576) 0
x(37_577) 1
x(37_578) 0
x(37_579) 0
x(37_580) 0
x(37_581) 0
x(37_582) 0
x(37_583) 0
x(37_584) 0
x(37_585) 0
x(38_586) 0
x(38_587) 0
x(38_588) 0
x(38_589) 1
x(38_590) 0
x(38_591) 0
x(38_592) 0
x(38_593) 0
x(38_594) 0
x(38_595) 0
x(38_596) 0
x(38_597) 0
x(39_598) 0
x(39_599) 0
x(39_600) 1
x(39_601) 0
x(39_602) 0
x(39_603) 0
x(39_604) 0
x(39_605) 0
x(39_606) 0
x(39_607) 0
x(39_608) 0
x(40_609) 0
x(40_610) 0
x(40_611) 0
x(40_612) 0
x(40_613) 0
x(40_614) 0
x(40_615) 0
x(40_616) 0
x(40_617) 0
x(40_618) 0
x(40_619) 0
x(40_620) 1
x(40_621) 0
x(40_622) 0
x(40_623) 0
x(40_624) 0
x(40_625) 0
x(40_626) 0
x(41_627) 0
x(41_628) 0
x(41_629) 0
x(41_630) 0
x(41_631) 0
x(41_632) 0
x(41_633) 1
x(41_634) 0
x(41_635) 0
x(41_636) 0
x(42_637) 0
x(42_638) 0
x(42_639) 0
x(42_640) 0
x(42_641) 1
x(42_642) 0
x(42_643) 0
x(42_644) 0
x(42_645) 0
x(42_646) 0
x(42_647) 0
x(42_648) 0
x(42_649) 0
x(42_650) 0
x(42_651) 0
x(42_652) 0
x(42_653) 0
x(42_654) 0
x(42_655) 0
x(42_656) 0
x(43_657) 0
x(43_658) 0
x(43_659) 0
x(43_660) 0
x(43_661) 0
x(43_662) 0
x(43_663) 0
x(43_664) 1
x(43_665) 0
x(43_666) 0
x(43_667) 0
x(44_668) 0
x(44_669) 0
x(44_670) 0
x(44_671) 0
x(44_672) 0
x(44_673) 0
x(44_674) 1
x(44_675) 0
x(44_676) 0
x(44_677) 0
x(44_678) 0
x(44_679) 0
x(44_680) 0
x(44_681) 0
x(44_682) 0
x(45_683) 0
x(45_684) 0
x(45_685) 0
x(45_686) 0
x(45_687) 0
x(45_688) 0
x(45_689) 0
x(45_690) 0
x(45_691) 0
x(45_692) 0
x(45_693) 0
x(45_694) 0
x(45_695) 0
x(45_696) 0
x(45_697) 0
x(45_698) 0
x(45_699) 1
x(45_700) 0
x(45_701) 0
x(45_702) 0
x(46_703) 0
x(46_704) 0
x(46_705) 0
x(46_706) 0
x(46_707) 0
x(46_708) 0
x(46_709) 0
x(46_710) 0
x(46_711) 0
x(46_712) 0
x(46_713) 0
x(46_714) 1
x(47_715) 0
x(47_716) 0
x(47_717) 1
x(47_718) 0
x(47_719) 0
x(47_720) 0
x(47_721) 0
x(47_722) 0
x(47_723) 0
x(47_724) 0
x(47_725) 0
x(47_726) 0
x(47_727) 0
x(47_728) 0
x(47_729) 0
x(47_730) 0
x(47_731) 0
x(47_732) 0
x(47_733) 0
x(48_734) 0
x(48_735) 0
x(48_736) 0
x(48_737) 0
x(48_738) 0
x(48_739) 0
x(48_740) 0
x(48_741) 0
x(48_742) 0
x(48_743) 0
x(48_744) 0
x(48_745) 1
x(48_746) 0
x(49_747) 0
x(49_748) 0
x(49_749) 0
x(49_750) 1
x(49_751) 0
x(49_752) 0
x(49_753) 0
x(49_754) 0
x(49_755) 0
x(49_756) 0
x(49_757) 0
x(50_758) 0
x(50_759) 1
x(50_760) 0
x(50_761) 0
x(50_762) 0
x(50_763) 0
x(50_764) 0
x(50_765) 0
x(50_766) 0
x(50_767) 0
x(50_768) 0
x(50_769) 0
x(50_770) 0
x(50_771) 0
x(50_772) 0
x(50_773) 0
x(51_774) 0
x(51_775) 0
x(51_776) 0
x(51_777) 0
x(51_778) 0
x(51_779) 0
x(51_780) 0
x(51_781) 0
x(51_782) 1
x(51_783) 0
x(51_784) 0
x(51_785) 0
x(51_786) 0
x(51_787) 0
x(51_788) 0
x(51_789) 0
x(51_790) 0
x(51_791) 0
x(51_792) 0
x(52_793) 0
x(52_794) 0
x(52_795) 0
x(52_796) 0
x(52_797) 0
x(52_798) 0
x(52_799) 0
x(52_800) 0
x(52_801) 0
x(52_802) 0
x(52_803) 1
x(52_804) 0
x(52_805) 0
x(52_806) 0
x(52_807) 0
x(52_808) 0
x(52_809) 0
x(53_810) 0
x(53_811) 0
x(53_812) 0
x(53_813) 0
x(53_814) 0
x(53_815) 0
x(53_816) 0
x(53_817) 0
x(53_818) 1
x(53_819) 0
x(54_820) 0
x(54_821) 0
x(54_822) 0
x(54_823) 1
x(54_824) 0
x(54_825) 0
x(54_826) 0
x(54_827) 0
x(54_828) 0
x(54_829) 0
x(54_830) 0
x(54_831) 0
x(55_832) 0
x(55_833) 0
x(55_834) 0
x(55_835) 0
x(55_836) 0
x(55_837) 0
x(55_838) 0
x(55_839) 0
x(55_840) 0
x(55_841) 0
x(55_842) 0
x(55_843) 1
x(55_844) 0
x(55_845) 0
x(56_846) 0
x(56_847) 0
x(56_848) 0
x(56_849) 0
x(56_850) 1
x(56_851) 0
x(56_852) 0
x(56_853) 0
x(56_854) 0
x(56_855) 0
x(56_856) 0
x(56_857) 0
x(56_858) 0
x(56_859) 0
x(57_860) 0
x(57_861) 0
x(57_862) 0
x(57_863) 0
x(57_864) 0
x(57_865) 1
x(57_866) 0
x(57_867) 0
x(57_868) 0
x(57_869) 0
x(57_870) 0
x(57_871) 0
x(57_872) 0
x(57_873) 0
x(57_874) 0
x(57_875) 0
x(58_876) 0
x(58_877) 0
x(58_878) 0
x(58_879) 0
x(58_880) 0
x(58_881) 0
x(58_882) 0
x(58_883) 1
x(58_884) 0
x(58_885) 0
x(58_886) 0
x(58_887) 0
x(58_888) 0
x(58_889) 0
x(58_890) 0
x(59_891) 0
x(59_892) 0
x(59_893) 0
x(59_894) 0
x(59_895) 0
x(59_896) 0
x(59_897) 0
x(59_898) 0
x(59_899) 0
x(59_900) 1
x(59_901) 0
x(59_902) 0
x(59_903) 0
x(59_904) 0
x(60_905) 0
x(60_906) 0
x(60_907) 0
x(60_908) 0
x(60_909) 0
x(60_910) 0
x(60_911) 0
x(60_912) 0
x(60_913) 0
x(60_914) 1
x(60_915) 0
x(60_916) 0
x(61_917) 0
x(61_918) 0
x(61_919) 0
x(61_920) 0
x(61_921) 0
x(61_922) 0
x(61_923) 0
x(61_924) 0
x(61_925) 0
x(61_926) 0
x(61_927) 0
x(61_928) 0
x(61_929) 0
x(61_930) 0
x(61_931) 0
x(61_932) 0
x(61_933) 0
x(61_934) 0
x(61_935) 1
x(61_936) 0
x(62_937) 0
x(62_938) 0
x(62_939) 0
x(62_940) 0
x(62_941) 0
x(62_942) 0
x(62_943) 0
x(62_944) 0
x(62_945) 0
x(62_946) 1
x(62_947) 0
x(63_948) 0
x(63_949) 0
x(63_950) 0
x(63_951) 0
x(63_952) 0
x(63_953) 0
x(63_954) 1
x(63_955) 0
x(63_956) 0
x(63_957) 0
x(63_958) 0
x(63_959) 0
x(63_960) 0
x(63_961) 0
x(64_962) 0
x(64_963) 0
x(64_964) 0
x(64_965) 0
x(64_966) 0
x(64_967) 0
x(64_968) 0
x(64_969) 0
x(64_970) 0
x(64_971) 0
x(64_972) 0
x(64_973) 0
x(64_974) 1
x(64_975) 0
x(65_976) 0
x(65_977) 0
x(65_978) 0
x(65_979) 0
x(65_980) 0
x(65_981) 0
x(65_982) 0
x(65_983) 1
x(65_984) 0
x(65_985) 0
x(66_986) 0
x(66_987) 0
x(66_988) 0
x(66_989) 1
x(66_990) 0
x(66_991) 0
x(66_992) 0
x(66_993) 0
x(66_994) 0
x(66_995) 0
x_1_0 3.2784683231264353e+02
s_1_0 0
z_1_0 0
x_1_1 3.2987557054474019e+02
s_1_1 0
z_1_1 0
x_1_2 0
s_1_2 1.0353997179072394e+00
z_1_2 1
x_1_3 3.2716705327011005e+02
s_1_3 0
z_1_3 0
x_1_4 3.2703033721633255e+02
s_1_4 0
z_1_4 0
x_1_5 0
s_1_5 3.3857208763947710e-01
z_1_5 1
x_1_6 3.2738900231197476e+02
s_1_6 0
z_1_6 0
x_1_7 0
s_1_7 5.9127391094807535e-01
z_1_7 1
x_1_8 0
s_1_8 6.8690088264702354e-01
z_1_8 1
x_1_9 3.3054282896034420e+02
s_1_9 0
z_1_9 0
x_1_10 0
s_1_10 5.1909180160146207e-01
z_1_10 1
x_1_11 0
s_1_11 9.4278145089629106e-01
z_1_11 1
x_1_12 0
s_1_12 6.4520568594161887e-01
z_1_12 1
x_1_13 0
s_1_13 0.992769721779041
z_1_13 1
x_1_14 0
s_1_14 8.8604222587309778e-01
z_1_14 1
x_1_15 0
s_1_15 1.1314254787939717e+00
z_1_15 1
x_1_16 3.2443596472963691e+02
s_1_16 0
z_1_16 0
x_1_17 3.2798518836684525e+02
s_1_17 0
z_1_17 0
x_1_18 3.2771741194371134e+02
s_1_18 0
z_1_18 0
x_1_19 3.2820429577119648e+02
s_1_19 0
z_1_19 0
x_1_20 0
s_1_20 0.735013009281829
z_1_20 1
x_1_21 3.2913840364199132e+02
s_1_21 0
z_1_21 0
x_1_22 3.2960326727852225e+02
s_1_22 0
z_1_22 0
x_1_23 0
s_1_23 4.6984479326056316e-01
z_1_23 1
x_1_24 330.909018763341
s_1_24 0
z_1_24 0
x_1_25 3.2735023841448128e+02
s_1_25 0
z_1_25 0
x_1_26 3.2635613082163036e+02
s_1_26 0
z_1_26 0
x_1_27 3.2957107477961108e+02
s_1_27 0
z_1_27 0
x_1_28 3.3120474091917276e+02
s_1_28 0
z_1_28 0
x_1_29 3.3123424301110208e+02
s_1_29 0
z_1_29 0
x_1_30 0
s_1_30 6.2661681196186692e-01
z_1_30 1
x_1_31 0
s_1_31 8.5073566863866290e-01
z_1_31 1
x_1_32 3.2986285204626620e+02
s_1_32 0
z_1_32 0
x_1_33 3.2705774549208581e+02
s_1_33 0
z_1_33 0
x_1_34 0
s_1_34 4.6260568220168352e-01
z_1_34 1
x_1_35 0
s_1_35 9.3214927411463577e-01
z_1_35 1
x_1_36 3.3010010940791108e+02
s_1_36 0
z_1_36 0
x_1_37 0
s_1_37 7.6505687949247658e-01
z_1_37 1
x_1_38 0
s_1_38 4.5957471505971625e-01
z_1_38 1
x_1_39 0
s_1_39 1.7325923564203549e-01
z_1_39 1
x_1_40 0
s_1_40 1.2606383204110898e+00
z_1_40 1
x_1_41 0
s_1_41 1.0351140275452053e+00
z_1_41 1
x_1_42 3.3056091418676078e+02
s_1_42 0
z_1_42 0
x_1_43 0
s_1_43 1.2784613940166309e+00
z_1_43 1
x_1_44 0
s_1_44 1.3901280718855560e+00
z_1_44 1
x_1_45 0
s_1_45 6.8236740764405113e-01
z_1_45 1
x_1_46 3.2769987364346161e+02
s_1_46 0
z_1_46 0
x_1_47 3.2937244040891528e+02
s_1_47 0
z_1_47 0
x_1_48 0
s_1_48 5.6190954043995589e-01
z_1_48 1
x_1_49 0
s_1_49 9.1146081409533508e-01
z_1_49 1
x_1_50 3.3069780713506043e+02
s_1_50 0
z_1_50 0
x_1_51 0
s_1_51 1.1125351074733771e+00
z_1_51 1
x_1_52 3.3050719007104635e+02
s_1_52 0
z_1_52 0
x_1_53 3.3071978619880974e+02
s_1_53 0
z_1_53 0
x_1_54 0
s_1_54 6.3389125955291092e-01
z_1_54 1
x_1_55 0
s_1_55 6.7461478506447747e-01
z_1_55 1
x_1_56 3.2906581883132458e+02
s_1_56 0
z_1_56 0
x_1_57 3.3064780664071441e+02
s_1_57 0
z_1_57 0
x_1_58 0
s_1_58 9.0862554631894454e-01
z_1_58 1
x_1_59 0
s_1_59 0.536560918437317
z_1_59 1
x_1_60 3.2204739349801093e+02
s_1_60 0
z_1_60 0
x_1_61 0
s_1_61 1.1281315038795583e+00
z_1_61 1
x_1_62 3.3091531691886485e+02
s_1_62 0
z_1_62 0
x_1_63 328.505009417393
s_1_63 0
z_1_63 0
x_1_64 3.2926031733397394e+02
s_1_64 0
z_1_64 0
x_1_65 0
s_1_65 5.5412675555271562e-01
z_1_65 1
x_1_66 0
s_1_66 6.0568780393805355e-01
z_1_66 1
x_1_67 3.2632885661814362e+02
s_1_67 0
z_1_67 0
x_1_68 0
s_1_68 1.0773051325231791e+00
z_1_68 1
x_1_69 3.2700155374652240e+02
s_1_69 0
z_1_69 0
x_1_70 3.2944404787750682e+02
s_1_70 0
z_1_70 0
x_1_71 0
s_1_71 0.692070496515953
z_1_71 1
x_1_72 3.2923435165360570e+02
s_1_72 0
z_1_72 0
x_1_73 0
s_1_73 6.4235775603447109e-01
z_1_73 1
x_1_74 3.2274750165874138e+02
s_1_74 0
z_1_74 0
x_1_75 3.2738401384651661e+02
s_1_75 0
z_1_75 0
x_1_76 0
s_1_76 8.5499514803814236e-01
z_1_76 1
x_1_77 3.2757354261726141e+02
s_1_77 0
z_1_77 0
x_1_78 0
s_1_78 6.9892634131247178e-01
z_1_78 1
x_1_79 0
s_1_79 6.9800612019389519e-01
z_1_79 1
x_1_80 0
s_1_80 7.3657592036761343e-01
z_1_80 1
x_1_81 0
s_1_81 0.920468837255612
z_1_81 1
x_1_82 3.2750572709366679e+02
s_1_82 0
z_1_82 0
x_1_83 3.2995674422057346e+02
s_1_83 0
z_1_83 0
x_1_84 0
s_1_84 9.4787457026541233e-01
z_1_84 1
x_1_85 0
s_1_85 3.5779494406597223e-01
z_1_85 1
x_1_86 3.2893087139353156e+02
s_1_86 0
z_1_86 0
x_1_87 3.3111813801806420e+02
s_1_87 0
z_1_87 0
x_1_88 3.2794649836048484e+02
s_1_88 0
z_1_88 0
x_1_89 0
s_1_89 1.2909301785985008e+00
z_1_89 1
x_1_90 0
s_1_90 7.3079493589466438e-01
z_1_90 1
x_1_91 3.2896515513770282e+02
s_1_91 0
z_1_91 0
x_1_92 3.2662057212868240e+02
s_1_92 0
z_1_92 0
x_1_93 3.2703194810729474e+02
s_1_93 0
z_1_93 0
x_1_94 0
s_1_94 4.4716540898662060e-01
z_1_94 1
x_1_95 3.2857121693086810e+02
s_1_95 0
z_1_95 0
x_1_96 3.2665867837239057e+02
s_1_96 0
z_1_96 0
x_1_97 0
s_1_97 8.5752379253972322e-01
z_1_97 1
x_1_98 3.2992513937037438e+02
s_1_98 0
z_1_98 0
x_1_99 0
s_1_99 9.5668024057522416e-01
z_1_99 1
x_1_100 0
s_1_100 9.1177484812214971e-01
z_1_100 1
x_1_101 0
s_1_101 9.8663888138253242e-01
z_1_101 1
x_1_102 329.983730122447
s_1_102 0
z_1_102 0
x_1_103 0
s_1_103 0.433437172556296
z_1_103 1
x_1_104 3.2802927850536071e+02
s_1_104 0
z_1_104 0
x_1_105 3.3018588859913871e+02
s_1_105 0
z_1_105 0
x_1_106 0
s_1_106 5.2132687321864069e-01
z_1_106 1
x_1_107 0
s_1_107 1.0092255746712908e+00
z_1_107 1
x_1_108 3.2830485323444009e+02
s_1_108 0
z_1_108 0
x_1_109 0
s_1_109 0.947280271910131
z_1_109 1
x_1_110 328.319602817297
s_1_110 0
z_1_110 0
x_1_111 3.2997896118648350e+02
s_1_111 0
z_1_111 0
x_1_112 0
s_1_112 6.7177216967684217e-01
z_1_112 1
x_1_113 3.2672383696376346e+02
s_1_113 0
z_1_113 0
x_1_114 0
s_1_114 1.1978121594802360e+00
z_1_114 1
x_1_115 3.3003789341822267e+02
s_1_115 0
z_1_115 0
x_1_116 0
s_1_116 1.0136821586638689e+00
z_1_116 1
x_1_117 0
s_1_117 1.1592521696802578e+00
z_1_117 1
x_1_118 3.2682725644856691e+02
s_1_118 0
z_1_118 0
x_1_119 0
s_1_119 5.3708067515981384e-01
z_1_119 1
x_1_120 3.3026317419111729e+02
s_1_120 0
z_1_120 0
x_1_121 3.3010015017911792e+02
s_1_121 0
z_1_121 0
x_1_122 0
s_1_122 1.0592434097052319e+00
z_1_122 1
x_1_123 0
s_1_123 8.2749477969264262e-01
z_1_123 1
x_1_124 3.2687194968620315e+02
s_1_124 0
z_1_124 0
x_1_125 0
s_1_125 1.0940350885502994e+00
z_1_125 1
x_1_126 3.2855632011778653e+02
s_1_126 0
z_1_126 0
x_1_127 0
s_1_127 6.0233676122879842e-01
z_1_127 1
x_1_128 3.3067125181294978e+02
s_1_128 0
z_1_128 0
x_1_129 3.2755224167741835e+02
s_1_129 0
z_1_129 0
x_1_130 3.3065055896900594e+02
s_1_130 0
z_1_130 0
x_1_131 3.2970512294862419e+02
s_1_131 0
z_1_131 0
x_1_132 327.897177208215
s_1_132 0
z_1_132 0
x_1_133 3.3082227124553174e+02
s_1_133 0
z_1_133 0
x_1_134 3.2700427734036930e+02
s_1_134 0
z_1_134 0
x_1_135 0
s_1_135 6.9566617200325709e-01
z_1_135 1
x_1_136 0
s_1_136 7.2616313223261386e-01
z_1_136 1
x_1_137 3.3005732074193656e+02
s_1_137 0
z_1_137 0
x_1_138 3.2751777974143624e+02
s_1_138 0
z_1_138 0
x_1_139 3.2717436669394374e+02
s_1_139 0
z_1_139 0
x_1_140 0
s_1_140 1.0888031483409577e+00
z_1_140 1
x_1_141 0
s_1_141 2.5347335090918932e-01
z_1_141 1
x_1_142 0
s_1_142 6.6833099491486792e-01
z_1_142 1
x_1_143 3.3033975203428417e+02
s_1_143 0
z_1_143 0
x_1_144 325.705450380221
s_1_144 0
z_1_144 0
x_1_145 3.2737421621009707e+02
s_1_145 0
z_1_145 0
x_1_146 3.2802240944467485e+02
s_1_146 0
z_1_146 0
x_1_147 3.3123060053586960e+02
s_1_147 0
z_1_147 0
x_1_148 0
s_1_148 1.1201131582329253e+00
z_1_148 1
x_1_149 0
s_1_149 4.5014006376732141e-02
z_1_149 1
x_1_150 0
s_1_150 5.6070599752274575e-01
z_1_150 1
x_1_151 0
s_1_151 8.9197192086430732e-01
z_1_151 1
x_1_152 3.2690867309831083e+02
s_1_152 0
z_1_152 0
x_1_153 329.409374890849
s_1_153 0
z_1_153 0
x_1_154 3.2924978253804147e+02
s_1_154 0
z_1_154 0
x_1_155 326.523808311671
s_1_155 0
z_1_155 0
x_1_156 3.3086409003427252e+02
s_1_156 0
z_1_156 0
x_1_157 3.2919956521969289e+02
s_1_157 0
z_1_157 0
x_1_158 0
s_1_158 6.0825652733910829e-01
z_1_158 1
x_1_159 3.2840211611794075e+02
s_1_159 0
z_1_159 0
x_2_0 2.0312045193683036e+05
